c uprop, v00.0, 
c reading from data/prog595.c.cnf
c done reading: 0.002618
p cnf 148 641
-53 -74 0
-53 -70 0
53 70 74 0
-47 70 74 0
-47 -70 -74 0
47 70 -74 0
47 -70 74 0
53 -65 0
-63 -65 0
-53 63 65 0
-53 -58 63 0
53 -58 -63 0
53 58 63 0
-53 58 -63 0
-54 65 0
-51 -54 0
51 54 -65 0
-49 51 -65 0
-49 -51 65 0
49 51 65 0
49 -51 -65 0
-48 54 0
-45 -48 0
45 48 -54 0
45 -54 -72 0
-45 54 -72 0
45 54 72 0
-45 -54 72 0
48 -76 0
-67 -76 0
-48 67 76 0
-48 67 -77 0
48 -67 -77 0
48 67 77 0
-48 -67 77 0
76 -78 0
-60 -78 0
60 -76 78 0
60 -76 -79 0
-60 76 -79 0
60 76 79 0
-60 -76 79 0
78 -80 0
-56 -80 0
56 -78 80 0
56 -78 -81 0
-56 78 -81 0
56 78 81 0
-56 -78 81 0
70 -82 0
74 -82 0
-70 -74 82 0
-70 -74 -83 0
70 74 -83 0
-70 74 83 0
70 -74 83 0
-63 -70 84 0
-63 -82 84 0
-70 -82 84 0
63 70 -84 0
63 82 -84 0
70 82 -84 0
63 -84 -85 0
70 -84 -85 0
82 -84 -85 0
-63 84 85 0
-70 84 85 0
-82 84 85 0
-63 -70 -82 85 0
63 70 82 -85 0
-51 -63 86 0
-51 -84 86 0
-63 -84 86 0
51 63 -86 0
51 84 -86 0
63 84 -86 0
51 -86 -87 0
63 -86 -87 0
84 -86 -87 0
-51 86 87 0
-63 86 87 0
-84 86 87 0
-51 -63 -84 87 0
51 63 84 -87 0
-45 -51 88 0
-45 -86 88 0
-51 -86 88 0
45 51 -88 0
45 86 -88 0
51 86 -88 0
-43 45 -88 0
-43 51 -88 0
-43 86 -88 0
43 -45 88 0
43 -51 88 0
43 -86 88 0
43 -45 -51 -86 0
-43 45 51 86 0
42 -45 -67 0
42 -67 -88 0
42 -45 -88 0
-42 45 67 0
-42 67 88 0
-42 45 88 0
-41 -42 67 0
-41 -42 45 0
-41 -42 88 0
41 42 -67 0
41 42 -45 0
41 42 -88 0
41 -45 -67 -88 0
-41 45 67 88 0
40 -60 -67 0
40 -42 -60 0
40 -42 -67 0
-40 60 67 0
-40 42 60 0
-40 42 67 0
-39 -40 60 0
-39 -40 67 0
-39 -40 42 0
39 40 -60 0
39 40 -67 0
39 40 -42 0
39 -42 -60 -67 0
-39 42 60 67 0
38 -56 -60 0
38 -40 -56 0
38 -40 -60 0
-38 56 60 0
-38 40 56 0
-38 40 60 0
-38 56 -73 0
-38 60 -73 0
-38 40 -73 0
38 -56 73 0
38 -60 73 0
38 -40 73 0
-40 -56 -60 73 0
40 56 60 -73 0
56 -69 0
38 -69 0
-38 -56 69 0
-38 -56 -62 0
38 56 -62 0
38 -56 62 0
-38 56 62 0
-50 87 0
-50 74 0
50 -74 -87 0
-44 -74 -87 0
-44 74 87 0
44 74 -87 0
44 -74 87 0
-43 66 -70 0
-43 -50 66 0
-50 66 -70 0
43 -66 70 0
43 50 -66 0
50 -66 70 0
43 -59 -66 0
-59 -66 70 0
50 -59 -66 0
-43 59 66 0
59 66 -70 0
-50 59 66 0
-43 -50 59 -70 0
43 50 -59 70 0
-41 55 -63 0
-41 55 -66 0
55 -63 -66 0
41 -55 63 0
41 -55 66 0
-55 63 66 0
-37 41 -55 0
-37 -55 63 0
-37 -55 66 0
37 -41 55 0
37 55 -63 0
37 55 -66 0
37 -41 -63 -66 0
-37 41 63 66 0
36 -39 -51 0
36 -39 -55 0
36 -51 -55 0
-36 39 51 0
-36 39 55 0
-36 51 55 0
-35 -36 39 0
-35 -36 51 0
-35 -36 55 0
35 36 -39 0
35 36 -51 0
35 36 -55 0
35 -39 -51 -55 0
-35 39 51 55 0
34 -45 -73 0
34 -36 -73 0
34 -36 -45 0
-34 45 73 0
-34 36 73 0
-34 36 45 0
34 -73 0
34 -45 0
34 -36 0
-36 -45 -73 0
33 -62 -67 0
33 -34 -62 0
33 -34 -67 0
-33 62 67 0
-33 34 62 0
-33 34 67 0
33 -62 0
33 -67 0
33 -34 0
-34 -62 -67 0
32 -60 -69 0
32 -33 -69 0
32 -33 -60 0
-32 60 69 0
-32 33 69 0
-32 33 60 0
32 -69 0
32 -60 0
32 -33 0
-33 -60 -69 0
-32 -56 0
32 -56 0
-32 56 0
-31 -74 0
-31 -83 0
31 74 83 0
-30 74 83 0
-30 -74 -83 0
30 -74 83 0
30 74 -83 0
-29 31 0
-29 -85 0
29 -31 85 0
-28 -31 85 0
-28 31 -85 0
28 31 85 0
28 -31 -85 0
-27 29 0
-27 -44 0
27 -29 44 0
-26 -29 44 0
-26 29 -44 0
26 29 44 0
26 -29 -44 0
-25 27 0
-25 -59 0
25 -27 59 0
-24 -27 59 0
-24 27 -59 0
24 27 59 0
24 -27 -59 0
-23 25 0
-23 -37 0
23 -25 37 0
-22 -25 37 0
-22 25 -37 0
22 25 37 0
22 -25 -37 0
23 -89 0
-35 -89 0
-23 35 89 0
-23 35 -90 0
23 -35 -90 0
23 35 90 0
-23 -35 90 0
89 -91 0
-89 91 0
-89 -92 0
89 92 0
91 -93 0
-91 93 0
-91 -94 0
91 94 0
93 -95 0
-93 95 0
-93 -96 0
93 96 0
95 -97 0
-95 97 0
-95 -98 0
95 98 0
97 -99 0
-97 99 0
-97 -100 0
97 100 0
-101 -103 0
-103 -104 0
101 103 104 0
101 104 -106 0
-101 -104 -106 0
-101 104 106 0
101 -104 106 0
103 -107 0
-107 -108 0
-103 107 108 0
-103 108 -110 0
103 -108 -110 0
103 108 110 0
-103 -108 110 0
107 -111 0
-111 -112 0
-107 111 112 0
-107 112 -114 0
107 -112 -114 0
107 112 114 0
-107 -112 114 0
111 -115 0
-115 -116 0
-111 115 116 0
-111 116 -117 0
111 -116 -117 0
111 116 117 0
-111 -116 117 0
115 -118 0
-118 -119 0
-115 118 119 0
-115 119 -121 0
115 -119 -121 0
115 119 121 0
-115 -119 121 0
118 -122 0
-122 -123 0
-118 122 123 0
-118 123 -124 0
118 -123 -124 0
118 123 124 0
-118 -123 124 0
122 -125 0
-125 -126 0
-122 125 126 0
-122 126 -128 0
122 -126 -128 0
122 126 128 0
-122 -126 128 0
104 -129 0
101 -129 0
-101 -104 129 0
-101 -104 -130 0
101 104 -130 0
101 -104 130 0
-101 104 130 0
-104 -108 131 0
-108 -129 131 0
-104 -129 131 0
104 108 -131 0
108 129 -131 0
104 129 -131 0
108 -131 -132 0
104 -131 -132 0
129 -131 -132 0
-108 131 132 0
-104 131 132 0
-129 131 132 0
-104 -108 -129 132 0
104 108 129 -132 0
-108 -112 133 0
-112 -131 133 0
-108 -131 133 0
108 112 -133 0
112 131 -133 0
108 131 -133 0
112 -133 -134 0
108 -133 -134 0
131 -133 -134 0
-112 133 134 0
-108 133 134 0
-131 133 134 0
-108 -112 -131 134 0
108 112 131 -134 0
-112 -116 135 0
-116 -133 135 0
-112 -133 135 0
112 116 -135 0
116 133 -135 0
112 133 -135 0
116 -135 -136 0
112 -135 -136 0
133 -135 -136 0
-116 135 136 0
-112 135 136 0
-133 135 136 0
-112 -116 -133 136 0
112 116 133 -136 0
-116 -119 137 0
-119 -135 137 0
-116 -135 137 0
116 119 -137 0
119 135 -137 0
116 135 -137 0
119 -137 -138 0
116 -137 -138 0
135 -137 -138 0
-119 137 138 0
-116 137 138 0
-135 137 138 0
-116 -119 -135 138 0
116 119 135 -138 0
-119 -123 139 0
-123 -137 139 0
-119 -137 139 0
119 123 -139 0
123 137 -139 0
119 137 -139 0
123 -139 -140 0
119 -139 -140 0
137 -139 -140 0
-123 139 140 0
-119 139 140 0
-137 139 140 0
-119 -123 -137 140 0
119 123 137 -140 0
-123 -126 141 0
-126 -139 141 0
-123 -139 141 0
123 126 -141 0
126 139 -141 0
123 139 -141 0
-75 126 -141 0
-75 123 -141 0
-75 139 -141 0
75 -126 141 0
75 -123 141 0
75 -139 141 0
75 -123 -126 -139 0
-75 123 126 139 0
-71 126 0
-71 141 0
71 -126 -141 0
-64 -126 -141 0
-64 126 141 0
64 -126 141 0
64 126 -141 0
-52 134 0
-52 101 0
52 -101 -134 0
-46 -101 -134 0
-46 101 134 0
46 101 -134 0
46 -101 134 0
68 -104 -136 0
-52 68 -136 0
-52 68 -104 0
-68 104 136 0
52 -68 136 0
52 -68 104 0
-61 -68 136 0
-61 -68 104 0
52 -61 -68 0
61 68 -136 0
61 68 -104 0
-52 61 68 0
-52 61 -104 -136 0
52 -61 104 136 0
57 -108 -138 0
57 -68 -138 0
57 -68 -108 0
-57 108 138 0
-57 68 138 0
-57 68 108 0
-57 -102 138 0
-57 -102 108 0
-57 68 -102 0
57 102 -138 0
57 102 -108 0
57 -68 102 0
-68 102 -108 -138 0
68 -102 108 138 0
105 -112 -140 0
-57 105 -140 0
-57 105 -112 0
-105 112 140 0
57 -105 140 0
57 -105 112 0
-105 -109 140 0
-105 -109 112 0
57 -105 -109 0
105 109 -140 0
105 109 -112 0
-57 105 109 0
-57 109 -112 -140 0
57 -109 112 140 0
-75 113 -116 0
-75 -105 113 0
-105 113 -116 0
75 -113 116 0
75 105 -113 0
105 -113 116 0
-75 113 0
113 -116 0
-105 113 0
-75 -105 -116 0
-64 -119 120 0
-64 -113 120 0
-113 -119 120 0
64 119 -120 0
64 113 -120 0
113 119 -120 0
-64 120 0
-119 120 0
-113 120 0
-64 -113 -119 0
-71 -123 127 0
-71 -120 127 0
-120 -123 127 0
71 123 -127 0
71 120 -127 0
120 123 -127 0
-71 127 0
-123 127 0
-120 127 0
-71 -120 -123 0
-126 -127 0
-126 127 0
126 -127 0
-101 -142 0
-130 -142 0
101 130 142 0
101 130 -143 0
-101 -130 -143 0
-101 130 143 0
101 -130 143 0
142 -144 0
-132 -144 0
132 -142 144 0
132 -142 -145 0
-132 142 -145 0
132 142 145 0
-132 -142 145 0
144 -146 0
-46 -146 0
46 -144 146 0
46 -144 -147 0
-46 144 -147 0
46 144 147 0
-46 -144 147 0
146 -148 0
-61 -148 0
61 -146 148 0
-21 61 -146 0
-21 -61 146 0
21 61 146 0
21 -61 -146 0
-20 148 0
-20 -102 0
20 102 -148 0
-19 102 -148 0
-19 -102 148 0
19 102 148 0
19 -102 -148 0
-18 20 0
-18 -109 0
18 -20 109 0
-17 -20 109 0
-17 20 -109 0
17 20 109 0
17 -20 -109 0
-16 18 0
16 -18 0
-15 -18 0
15 18 0
-14 16 0
14 -16 0
-13 -16 0
13 16 0
-12 14 0
12 -14 0
-11 -14 0
11 14 0
-10 12 0
10 -12 0
-9 -12 0
9 12 0
-8 10 0
8 -10 0
-7 -10 0
7 10 0
-6 74 0
-6 101 0
6 -74 -101 0
-74 -101 0
74 101 0
5 -83 -130 0
5 -6 -83 0
5 -6 -130 0
-5 83 130 0
-5 6 83 0
-5 6 130 0
5 -83 0
5 -130 0
5 -6 0
-6 -83 -130 0
4 -85 -132 0
4 -5 -85 0
4 -5 -132 0
-4 85 132 0
-4 5 85 0
-4 5 132 0
-4 85 0
-4 132 0
-4 5 0
5 85 132 0
3 -44 -46 0
3 -4 -44 0
3 -4 -46 0
-3 44 46 0
-3 4 44 0
-3 4 46 0
3 -44 0
3 -46 0
3 -4 0
-4 -44 -46 0
2 -59 -61 0
2 -3 -59 0
2 -3 -61 0
-2 59 61 0
-2 3 59 0
-2 3 61 0
-2 59 0
-2 61 0
-2 3 0
3 59 61 0
1 -37 -102 0
1 -2 -37 0
1 -2 -102 0
-1 37 102 0
-1 2 37 0
-1 2 102 0
-1 37 0
-1 102 0
-1 2 0
2 37 102 0
-35 -109 0
-1 -35 0
-1 -109 0
1 35 109 0
